90905736 -1 0
350136262 -2 0
14396949 3 0
166112842 -4 0
122677843 5 0
415776690 6 0
281985540 -7 0
193593769 6 0
21166232 3 0
94968918 8 0
512398340 5 0
545466856 -9 0
178785015 6 0
33764508 9 0
h 8 0
70282748 1 0
90476497 -8 0
347596171 -2 0
637982227 10 0
222111662 -2 0
